certificates/rado_a9_c293_N34.drat
-32 13 -26 0
-33 -34 0
-34 0
21 0
32 0
-27 0
-16 0
-26 0
14 0
3 0
29 0
13 0
-9 0
-19 0
-8 0
-33 0
-24 0
-18 0
5 0
22 0
6 0
15 0
23 0
31 0
4 0
12 0
20 0
30 0
11 0
28 0
0
